% Logging successfully configured
%%%mzn-stat: initTime=0.08591706
%%%mzn-stat: objective=654
%%%mzn-stat: nodes=2087
%%%mzn-stat: restarts=0
%%%mzn-stat: peakDepth=310
%%%mzn-stat: solveTime=0.05156755
%%%mzn-stat: variables=636
%%%mzn-stat: propagators=436
%%%mzn-stat: failures=188
%%%mzn-stat: propagations=15706
%%%mzn-stat: nogoods=188
%%%mzn-stat: numAtomicConstraintsPropagated=0
%%%mzn-stat: allDifferentNumber1TotalHallSetSize=1219
%%%mzn-stat: allDifferentNumber1NumberOfConflicts=187
%%%mzn-stat: allDifferentNumber1MaxHallSetSize=50
%%%mzn-stat: allDifferentNumber1PropagationsTotal=3013
%%%mzn-stat: allDifferentNumber1PropagationsThatFoundConflict=187
%%%mzn-stat: circuitNumber2PropagationsThatFoundConflict=1
%%%mzn-stat: circuitNumber2TotalFixedEdgesAtConflict=27
%%%mzn-stat: circuitNumber2NumberOfConflicts=1
%%%mzn-stat: circuitNumber2PropagationsThatPruned=143
%%%mzn-stat: circuitNumber2PropagationsTotal=1869
%%%mzn-stat: AverageConflictSize=4.98404255319149
%%%mzn-stat: NumUnitNogoodsLearned=0
%%%mzn-stat: AverageLearnedNogoodLength=5.23404255319149
%%%mzn-stat: AverageBacktrackAmount=0
%%%mzn-stat: AverageLbd=4.569148936170213
%%%mzn-stat: 2AutonomousSearchNumBackupCalled=275
%%%mzn-stat: 2AutonomousSearchNumPredicatesRemoved=0
%%%mzn-stat: 2AutonomousSearchNumCalls=276
%%%mzn-stat: 2AutonomousSearchNumPredicatesAdded=586
%%%mzn-stat: 2AutonomousSearchAverageSizeOfHeap=2.1231884057971016
%%%mzn-stat: 2AutonomousSearchNumAssignedPredicatesEncountered=586
%%%mzn-stat-end
maxleg = 654;
succ = array1d(1..50,[7, 8, 4, 11, 14, 20, 5, 21, 29, 12, 16, 2, 15, 24, 26, 49, 3, 25, 10, 13, 42, 31, 47, 37, 43, 23, 34, 17, 39, 40, 38, 28, 44, 35, 45, 27, 9, 6, 41, 19, 33, 48, 22, 46, 32, 50, 30, 36, 1, 18]);
% time elapsed: 4.90 s
----------
%%%mzn-stat: initTime=0.08591706
%%%mzn-stat: objective=342
%%%mzn-stat: nodes=2901
%%%mzn-stat: restarts=0
%%%mzn-stat: peakDepth=310
%%%mzn-stat: solveTime=0.068810331
%%%mzn-stat: variables=636
%%%mzn-stat: propagators=436
%%%mzn-stat: failures=282
%%%mzn-stat: propagations=21031
%%%mzn-stat: nogoods=282
%%%mzn-stat: numAtomicConstraintsPropagated=0
%%%mzn-stat: allDifferentNumber1TotalHallSetSize=1796
%%%mzn-stat: allDifferentNumber1NumberOfConflicts=281
%%%mzn-stat: allDifferentNumber1MaxHallSetSize=50
%%%mzn-stat: allDifferentNumber1PropagationsTotal=3872
%%%mzn-stat: allDifferentNumber1PropagationsThatFoundConflict=281
%%%mzn-stat: circuitNumber2PropagationsThatFoundConflict=1
%%%mzn-stat: circuitNumber2TotalFixedEdgesAtConflict=27
%%%mzn-stat: circuitNumber2NumberOfConflicts=1
%%%mzn-stat: circuitNumber2PropagationsThatPruned=205
%%%mzn-stat: circuitNumber2PropagationsTotal=2448
%%%mzn-stat: AverageConflictSize=5.680851063829787
%%%mzn-stat: NumUnitNogoodsLearned=0
%%%mzn-stat: AverageLearnedNogoodLength=5.98936170212766
%%%mzn-stat: AverageBacktrackAmount=0
%%%mzn-stat: AverageLbd=4.968085106382978
%%%mzn-stat: 2AutonomousSearchNumBackupCalled=547
%%%mzn-stat: 2AutonomousSearchNumPredicatesRemoved=0
%%%mzn-stat: 2AutonomousSearchNumCalls=549
%%%mzn-stat: 2AutonomousSearchNumPredicatesAdded=1222
%%%mzn-stat: 2AutonomousSearchAverageSizeOfHeap=2.938069216757741
%%%mzn-stat: 2AutonomousSearchNumAssignedPredicatesEncountered=1613
%%%mzn-stat-end
maxleg = 342;
succ = array1d(1..50,[7, 8, 4, 11, 14, 20, 5, 21, 29, 12, 16, 2, 15, 28, 26, 32, 3, 13, 17, 18, 23, 25, 47, 49, 43, 33, 10, 45, 39, 38, 22, 40, 50, 27, 36, 48, 24, 31, 41, 35, 37, 34, 6, 9, 19, 44, 30, 42, 1, 46]);
% time elapsed: 4.91 s
----------
%%%mzn-stat: initTime=0.08591706
%%%mzn-stat: objective=336
%%%mzn-stat: nodes=3536
%%%mzn-stat: restarts=0
%%%mzn-stat: peakDepth=310
%%%mzn-stat: solveTime=0.081850791
%%%mzn-stat: variables=636
%%%mzn-stat: propagators=436
%%%mzn-stat: failures=356
%%%mzn-stat: propagations=25609
%%%mzn-stat: nogoods=356
%%%mzn-stat: numAtomicConstraintsPropagated=0
%%%mzn-stat: allDifferentNumber1TotalHallSetSize=2223
%%%mzn-stat: allDifferentNumber1NumberOfConflicts=353
%%%mzn-stat: allDifferentNumber1MaxHallSetSize=50
%%%mzn-stat: allDifferentNumber1PropagationsTotal=4519
%%%mzn-stat: allDifferentNumber1PropagationsThatFoundConflict=353
%%%mzn-stat: circuitNumber2PropagationsThatFoundConflict=3
%%%mzn-stat: circuitNumber2TotalFixedEdgesAtConflict=112
%%%mzn-stat: circuitNumber2NumberOfConflicts=3
%%%mzn-stat: circuitNumber2PropagationsThatPruned=227
%%%mzn-stat: circuitNumber2PropagationsTotal=2833
%%%mzn-stat: AverageConflictSize=5.98314606741573
%%%mzn-stat: NumUnitNogoodsLearned=0
%%%mzn-stat: AverageLearnedNogoodLength=6.367977528089888
%%%mzn-stat: AverageBacktrackAmount=0
%%%mzn-stat: AverageLbd=4.910112359550562
%%%mzn-stat: 2AutonomousSearchNumBackupCalled=808
%%%mzn-stat: 2AutonomousSearchNumPredicatesRemoved=0
%%%mzn-stat: 2AutonomousSearchNumCalls=811
%%%mzn-stat: 2AutonomousSearchNumPredicatesAdded=1743
%%%mzn-stat: 2AutonomousSearchAverageSizeOfHeap=3.4488286066584464
%%%mzn-stat: 2AutonomousSearchNumAssignedPredicatesEncountered=2797
%%%mzn-stat-end
maxleg = 336;
succ = array1d(1..50,[7, 8, 4, 11, 14, 20, 5, 21, 29, 19, 16, 2, 15, 24, 26, 49, 3, 25, 34, 23, 42, 6, 47, 37, 43, 33, 10, 17, 44, 38, 12, 28, 50, 35, 40, 27, 39, 31, 41, 45, 9, 48, 22, 46, 32, 13, 30, 36, 1, 18]);
% time elapsed: 4.92 s
----------
%%%mzn-stat: initTime=0.08591706
%%%mzn-stat: objective=307
%%%mzn-stat: nodes=3877
%%%mzn-stat: restarts=0
%%%mzn-stat: peakDepth=310
%%%mzn-stat: solveTime=0.08475316
%%%mzn-stat: variables=636
%%%mzn-stat: propagators=436
%%%mzn-stat: failures=361
%%%mzn-stat: propagations=26844
%%%mzn-stat: nogoods=361
%%%mzn-stat: numAtomicConstraintsPropagated=0
%%%mzn-stat: allDifferentNumber1TotalHallSetSize=2237
%%%mzn-stat: allDifferentNumber1NumberOfConflicts=358
%%%mzn-stat: allDifferentNumber1MaxHallSetSize=50
%%%mzn-stat: allDifferentNumber1PropagationsTotal=4629
%%%mzn-stat: allDifferentNumber1PropagationsThatFoundConflict=358
%%%mzn-stat: circuitNumber2PropagationsThatFoundConflict=3
%%%mzn-stat: circuitNumber2TotalFixedEdgesAtConflict=112
%%%mzn-stat: circuitNumber2NumberOfConflicts=3
%%%mzn-stat: circuitNumber2PropagationsThatPruned=232
%%%mzn-stat: circuitNumber2PropagationsTotal=2906
%%%mzn-stat: AverageConflictSize=5.9529085872576175
%%%mzn-stat: NumUnitNogoodsLearned=0
%%%mzn-stat: AverageLearnedNogoodLength=6.332409972299169
%%%mzn-stat: AverageBacktrackAmount=0
%%%mzn-stat: AverageLbd=4.883656509695291
%%%mzn-stat: 2AutonomousSearchNumBackupCalled=1075
%%%mzn-stat: 2AutonomousSearchNumPredicatesRemoved=0
%%%mzn-stat: 2AutonomousSearchNumCalls=1079
%%%mzn-stat: 2AutonomousSearchNumPredicatesAdded=1759
%%%mzn-stat: 2AutonomousSearchAverageSizeOfHeap=3.6923076923076925
%%%mzn-stat: 2AutonomousSearchNumAssignedPredicatesEncountered=3984
%%%mzn-stat-end
maxleg = 307;
succ = array1d(1..50,[7, 8, 4, 11, 14, 20, 5, 21, 29, 19, 16, 2, 15, 24, 26, 49, 3, 25, 34, 23, 42, 6, 47, 37, 43, 44, 10, 17, 39, 38, 12, 28, 50, 35, 40, 27, 9, 31, 41, 45, 33, 48, 22, 46, 32, 18, 30, 36, 1, 13]);
% time elapsed: 4.93 s
----------
%%%mzn-stat: initTime=0.08591706
%%%mzn-stat: objective=299
%%%mzn-stat: nodes=4298
%%%mzn-stat: restarts=0
%%%mzn-stat: peakDepth=310
%%%mzn-stat: solveTime=0.090486194
%%%mzn-stat: variables=636
%%%mzn-stat: propagators=436
%%%mzn-stat: failures=380
%%%mzn-stat: propagations=29113
%%%mzn-stat: nogoods=380
%%%mzn-stat: numAtomicConstraintsPropagated=0
%%%mzn-stat: allDifferentNumber1TotalHallSetSize=2412
%%%mzn-stat: allDifferentNumber1NumberOfConflicts=377
%%%mzn-stat: allDifferentNumber1MaxHallSetSize=50
%%%mzn-stat: allDifferentNumber1PropagationsTotal=4871
%%%mzn-stat: allDifferentNumber1PropagationsThatFoundConflict=377
%%%mzn-stat: circuitNumber2PropagationsThatFoundConflict=3
%%%mzn-stat: circuitNumber2TotalFixedEdgesAtConflict=112
%%%mzn-stat: circuitNumber2NumberOfConflicts=3
%%%mzn-stat: circuitNumber2PropagationsThatPruned=255
%%%mzn-stat: circuitNumber2PropagationsTotal=3085
%%%mzn-stat: AverageConflictSize=6.102631578947369
%%%mzn-stat: NumUnitNogoodsLearned=0
%%%mzn-stat: AverageLearnedNogoodLength=6.46578947368421
%%%mzn-stat: AverageBacktrackAmount=0
%%%mzn-stat: AverageLbd=4.918421052631579
%%%mzn-stat: 2AutonomousSearchNumBackupCalled=1334
%%%mzn-stat: 2AutonomousSearchNumPredicatesRemoved=0
%%%mzn-stat: 2AutonomousSearchNumCalls=1339
%%%mzn-stat: 2AutonomousSearchNumPredicatesAdded=2180
%%%mzn-stat: 2AutonomousSearchAverageSizeOfHeap=3.8909634055265125
%%%mzn-stat: 2AutonomousSearchNumAssignedPredicatesEncountered=5210
%%%mzn-stat-end
maxleg = 299;
succ = array1d(1..50,[7, 8, 4, 11, 14, 20, 5, 21, 29, 19, 16, 31, 15, 28, 26, 32, 3, 13, 34, 18, 23, 6, 47, 49, 43, 33, 12, 17, 39, 38, 2, 40, 50, 27, 36, 48, 24, 25, 41, 45, 37, 10, 22, 9, 35, 44, 30, 42, 1, 46]);
% time elapsed: 4.93 s
----------
%%%mzn-stat: initTime=0.08591706
%%%mzn-stat: objective=279
%%%mzn-stat: nodes=4589
%%%mzn-stat: restarts=0
%%%mzn-stat: peakDepth=310
%%%mzn-stat: solveTime=0.092032088
%%%mzn-stat: variables=636
%%%mzn-stat: propagators=436
%%%mzn-stat: failures=382
%%%mzn-stat: propagations=30020
%%%mzn-stat: nogoods=382
%%%mzn-stat: numAtomicConstraintsPropagated=0
%%%mzn-stat: allDifferentNumber1TotalHallSetSize=2416
%%%mzn-stat: allDifferentNumber1NumberOfConflicts=379
%%%mzn-stat: allDifferentNumber1MaxHallSetSize=50
%%%mzn-stat: allDifferentNumber1PropagationsTotal=4930
%%%mzn-stat: allDifferentNumber1PropagationsThatFoundConflict=379
%%%mzn-stat: circuitNumber2PropagationsThatFoundConflict=3
%%%mzn-stat: circuitNumber2TotalFixedEdgesAtConflict=112
%%%mzn-stat: circuitNumber2NumberOfConflicts=3
%%%mzn-stat: circuitNumber2PropagationsThatPruned=258
%%%mzn-stat: circuitNumber2PropagationsTotal=3129
%%%mzn-stat: AverageConflictSize=6.0811518324607325
%%%mzn-stat: NumUnitNogoodsLearned=0
%%%mzn-stat: AverageLearnedNogoodLength=6.442408376963351
%%%mzn-stat: AverageBacktrackAmount=0
%%%mzn-stat: AverageLbd=4.903141361256544
%%%mzn-stat: 2AutonomousSearchNumBackupCalled=1584
%%%mzn-stat: 2AutonomousSearchNumPredicatesRemoved=0
%%%mzn-stat: 2AutonomousSearchNumCalls=1590
%%%mzn-stat: 2AutonomousSearchNumPredicatesAdded=2184
%%%mzn-stat: 2AutonomousSearchAverageSizeOfHeap=4.048427672955975
%%%mzn-stat: 2AutonomousSearchNumAssignedPredicatesEncountered=6437
%%%mzn-stat-end
maxleg = 279;
succ = array1d(1..50,[7, 8, 4, 11, 14, 20, 5, 21, 29, 19, 16, 31, 15, 28, 26, 32, 3, 13, 34, 18, 23, 6, 47, 49, 43, 33, 12, 17, 41, 38, 2, 40, 50, 27, 36, 48, 24, 25, 37, 45, 39, 10, 22, 9, 35, 44, 30, 42, 1, 46]);
% time elapsed: 4.94 s
----------
%%%mzn-stat: initTime=0.08591706
%%%mzn-stat: objective=267
%%%mzn-stat: nodes=4936
%%%mzn-stat: restarts=0
%%%mzn-stat: peakDepth=310
%%%mzn-stat: solveTime=0.095599142
%%%mzn-stat: variables=636
%%%mzn-stat: propagators=436
%%%mzn-stat: failures=394
%%%mzn-stat: propagations=31524
%%%mzn-stat: nogoods=394
%%%mzn-stat: numAtomicConstraintsPropagated=0
%%%mzn-stat: allDifferentNumber1TotalHallSetSize=2561
%%%mzn-stat: allDifferentNumber1NumberOfConflicts=391
%%%mzn-stat: allDifferentNumber1MaxHallSetSize=50
%%%mzn-stat: allDifferentNumber1PropagationsTotal=5074
%%%mzn-stat: allDifferentNumber1PropagationsThatFoundConflict=391
%%%mzn-stat: circuitNumber2PropagationsThatFoundConflict=3
%%%mzn-stat: circuitNumber2TotalFixedEdgesAtConflict=112
%%%mzn-stat: circuitNumber2NumberOfConflicts=3
%%%mzn-stat: circuitNumber2PropagationsThatPruned=266
%%%mzn-stat: circuitNumber2PropagationsTotal=3225
%%%mzn-stat: AverageConflictSize=6.2360406091370555
%%%mzn-stat: NumUnitNogoodsLearned=0
%%%mzn-stat: AverageLearnedNogoodLength=6.560913705583756
%%%mzn-stat: AverageBacktrackAmount=0
%%%mzn-stat: AverageLbd=4.918781725888325
%%%mzn-stat: 2AutonomousSearchNumBackupCalled=1836
%%%mzn-stat: 2AutonomousSearchNumPredicatesRemoved=0
%%%mzn-stat: 2AutonomousSearchNumCalls=1843
%%%mzn-stat: 2AutonomousSearchNumPredicatesAdded=2432
%%%mzn-stat: 2AutonomousSearchAverageSizeOfHeap=4.174172544763972
%%%mzn-stat: 2AutonomousSearchNumAssignedPredicatesEncountered=7693
%%%mzn-stat-end
maxleg = 267;
succ = array1d(1..50,[7, 8, 4, 11, 14, 22, 5, 21, 29, 19, 16, 31, 15, 28, 26, 32, 3, 13, 34, 18, 23, 20, 47, 49, 43, 33, 12, 17, 41, 38, 2, 40, 50, 27, 36, 48, 24, 25, 37, 45, 39, 10, 6, 9, 35, 44, 30, 42, 1, 46]);
% time elapsed: 4.94 s
----------
%%%mzn-stat: initTime=0.08591706
%%%mzn-stat: objective=252
%%%mzn-stat: nodes=5292
%%%mzn-stat: restarts=0
%%%mzn-stat: peakDepth=310
%%%mzn-stat: solveTime=0.100364394
%%%mzn-stat: variables=636
%%%mzn-stat: propagators=436
%%%mzn-stat: failures=409
%%%mzn-stat: propagations=33487
%%%mzn-stat: nogoods=409
%%%mzn-stat: numAtomicConstraintsPropagated=0
%%%mzn-stat: allDifferentNumber1TotalHallSetSize=2594
%%%mzn-stat: allDifferentNumber1NumberOfConflicts=403
%%%mzn-stat: allDifferentNumber1MaxHallSetSize=50
%%%mzn-stat: allDifferentNumber1PropagationsTotal=5267
%%%mzn-stat: allDifferentNumber1PropagationsThatFoundConflict=403
%%%mzn-stat: circuitNumber2PropagationsThatFoundConflict=6
%%%mzn-stat: circuitNumber2TotalFixedEdgesAtConflict=254
%%%mzn-stat: circuitNumber2NumberOfConflicts=6
%%%mzn-stat: circuitNumber2PropagationsThatPruned=283
%%%mzn-stat: circuitNumber2PropagationsTotal=3370
%%%mzn-stat: AverageConflictSize=6.45721271393643
%%%mzn-stat: NumUnitNogoodsLearned=0
%%%mzn-stat: AverageLearnedNogoodLength=6.80440097799511
%%%mzn-stat: AverageBacktrackAmount=0
%%%mzn-stat: AverageLbd=5.095354523227384
%%%mzn-stat: 2AutonomousSearchNumBackupCalled=2070
%%%mzn-stat: 2AutonomousSearchNumPredicatesRemoved=0
%%%mzn-stat: 2AutonomousSearchNumCalls=2078
%%%mzn-stat: 2AutonomousSearchNumPredicatesAdded=2787
%%%mzn-stat: 2AutonomousSearchAverageSizeOfHeap=4.378729547641964
%%%mzn-stat: 2AutonomousSearchNumAssignedPredicatesEncountered=9099
%%%mzn-stat-end
maxleg = 252;
succ = array1d(1..50,[7, 8, 4, 11, 14, 22, 5, 21, 29, 19, 16, 31, 15, 28, 26, 32, 3, 13, 34, 18, 23, 20, 47, 49, 43, 39, 12, 17, 37, 38, 2, 40, 50, 27, 36, 48, 24, 25, 41, 45, 33, 10, 6, 9, 35, 44, 30, 42, 1, 46]);
% time elapsed: 4.94 s
----------
==========
% time elapsed: 4.94 s
%%%mzn-stat: initTime=0.08591706
%%%mzn-stat: objective=252
%%%mzn-stat: nodes=5292
%%%mzn-stat: restarts=0
%%%mzn-stat: peakDepth=310
%%%mzn-stat: solveTime=0.10140268
%%%mzn-stat: variables=636
%%%mzn-stat: propagators=436
%%%mzn-stat: failures=410
%%%mzn-stat: propagations=33569
%%%mzn-stat: nogoods=410
%%%mzn-stat: numAtomicConstraintsPropagated=0
%%%mzn-stat: allDifferentNumber1TotalHallSetSize=2643
%%%mzn-stat: allDifferentNumber1NumberOfConflicts=404
%%%mzn-stat: allDifferentNumber1MaxHallSetSize=50
%%%mzn-stat: allDifferentNumber1PropagationsTotal=5269
%%%mzn-stat: allDifferentNumber1PropagationsThatFoundConflict=404
%%%mzn-stat: circuitNumber2PropagationsThatFoundConflict=6
%%%mzn-stat: circuitNumber2TotalFixedEdgesAtConflict=254
%%%mzn-stat: circuitNumber2NumberOfConflicts=6
%%%mzn-stat: circuitNumber2PropagationsThatPruned=283
%%%mzn-stat: circuitNumber2PropagationsTotal=3371
%%%mzn-stat: AverageConflictSize=6.485365853658537
%%%mzn-stat: NumUnitNogoodsLearned=1
%%%mzn-stat: AverageLearnedNogoodLength=6.790243902439024
%%%mzn-stat: AverageBacktrackAmount=0
%%%mzn-stat: AverageLbd=5.085365853658536
%%%mzn-stat: 2AutonomousSearchNumBackupCalled=2070
%%%mzn-stat: 2AutonomousSearchNumPredicatesRemoved=0
%%%mzn-stat: 2AutonomousSearchNumCalls=2078
%%%mzn-stat: 2AutonomousSearchNumPredicatesAdded=3000
%%%mzn-stat: 2AutonomousSearchAverageSizeOfHeap=4.378729547641964
%%%mzn-stat: 2AutonomousSearchNumAssignedPredicatesEncountered=9099
%%%mzn-stat-end
